RT is False
Default write of storage_offers_DA.csv just to have a file (but constraint should be inactive)
Reading model...
...model read.
creating competitive generators file...
...competitive generators recorded.
Loading data...
.. day-ahead data with real-time VRE data read.
Compiling instance...
...instance created.
Creating Offer Mitigation (model will solve as dispatch if TRUE)...
...storage offer mitigation file created
Converting model to MPEC...
...converted
NOTE: initial MIP solve with only storage competitive to get feasible solution
Solving...

Welcome to IBM(R) ILOG(R) CPLEX(R) Interactive Optimizer 12.9.0.0
  with Simplex, Mixed Integer & Barrier Optimizers
5725-A06 5725-A29 5724-Y48 5724-Y49 5724-Y54 5724-Y55 5655-Y21
Copyright IBM Corp. 1988, 2019.  All Rights Reserved.

Type 'help' for a list of available commands.
Type 'help' followed by a command name for more
information on commands.

CPLEX> Logfile 'cplex.log' closed.
Logfile 'C:\Users\llavin\Desktop\test919\logs\tmpv05vnwed.cplex.log' open.
CPLEX> New value for parallel optimization mode: -1
CPLEX> New value for mixed integer optimality gap tolerance: 0.01
CPLEX> New value for integrality tolerance: 1e-09
CPLEX> New value for feasibility tolerance: 0.1
CPLEX> New value for deterministic time limit in ticks: 100000
CPLEX> Problem 'C:\Users\llavin\Desktop\test919\logs\tmpvsi8dpfn.pyomo.lp' read.
Read time = 0.22 sec. (13.86 ticks)
CPLEX> Problem name         : C:\Users\llavin\Desktop\test919\logs\tmpvsi8dpfn.pyomo.lp
Objective sense      : Maximize
Variables            :   53321  [Nneg: 1,  Box: 21806,  Free: 4416,
                                 Binary: 27098]
Objective nonzeros   :    9029
Linear constraints   :  122164  [Less: 40983,  Greater: 58612,  Equal: 22569]
  Nonzeros           :  288457
  RHS nonzeros       :   66982

Variables            : Min LB: -5000.000        Max UB: 1000000.       
Objective nonzeros   : Min   : 0.07500000       Max   : 2500.000       
Linear constraints   :
  Nonzeros           : Min   : 0.07500000       Max   : 1000000.       
  RHS nonzeros       : Min   : 0.07500000       Max   : 1000000.       
CPLEX> CPXPARAM_Parallel                                -1
CPXPARAM_Simplex_Tolerances_Feasibility          0.10000000000000001
CPXPARAM_DetTimeLimit                            100000
CPXPARAM_MIP_Tolerances_MIPGap                   0.01
CPXPARAM_MIP_Tolerances_Integrality              1.0000000000000001e-09
Tried aggregator 3 times.
MIP Presolve eliminated 88129 rows and 19009 columns.
MIP Presolve added 3353 rows and 0 columns.
MIP Presolve modified 23480 coefficients.
Aggregator did 12834 substitutions.
Reduced MIP has 24554 rows, 20922 columns, and 68757 nonzeros.
Reduced MIP has 8284 binaries, 0 generals, 0 SOSs, and 0 indicators.
Presolve time = 0.30 sec. (175.42 ticks)
Probing fixed 450 vars, tightened 2957 bounds.
Probing time = 1.28 sec. (921.68 ticks)
Tried aggregator 2 times.
MIP Presolve eliminated 1004 rows and 904 columns.
MIP Presolve modified 2211 coefficients.
Aggregator did 56 substitutions.
Reduced MIP has 23494 rows, 19962 columns, and 65677 nonzeros.
Reduced MIP has 7832 binaries, 0 generals, 0 SOSs, and 0 indicators.
Presolve time = 0.11 sec. (64.13 ticks)
Probing time = 0.03 sec. (15.48 ticks)
Clique table members: 6581.
MIP emphasis: balance optimality and feasibility.
MIP search method: dynamic search.
Parallel mode: opportunistic, using up to 32 threads.
Root relaxation solution time = 0.27 sec. (208.78 ticks)

        Nodes                                         Cuts/
   Node  Left     Objective  IInf  Best Integer    Best Bound    ItCnt     Gap

      0     0      195.1640  1708                    195.1640     3426         
      0     0      195.1640   796                  Cuts: 1061     3812         
      0     0      195.1640   622                   Cuts: 888     4025         
      0     0      195.1640   564                   Cuts: 499     4133         
      0     0      195.1640   526                   Cuts: 257     4177         
      0     0      195.1640   511                   Cuts: 136     4196         
      0     0      195.1640   502                   Cuts: 128     4209         
      0     0      195.1640   496                   Cuts: 117     4215         
      0     5    infeasible                         -105.0355     4717         
Elapsed time = 10.16 sec. (6181.65 ticks, tree = 0.02 MB, solutions = 0)
    617    68   -15608.0048   109                   -105.0355     4814         
   1426   506    infeasible                         -105.0355     6458         
   2993   466   -27175.4853    70                   -105.0355     5990         
   3927  1755     -336.7556    26                   -105.0355     9524         
   4221  2344    infeasible                         -105.0355    11359         
   4388  3544     -336.7556    35                   -105.0355    13052         
   4544  3885    infeasible                         -105.0355    13612         
   4713  3832     -337.1728    41                   -105.0355    13401         
   4853  3885    -1708.8434    34                   -105.0355    13613         
   5261  4066     -338.6444    44                   -105.0355    14388         
Elapsed time = 21.81 sec. (9297.89 ticks, tree = 27.75 MB, solutions = 0)
   5535  4100     -891.0733    39                   -105.0355    14490         
   5776  4170     -338.6444    42                   -105.0355    14702         
   5979  4231     -842.0910    28                   -105.0355    14940         
   6181  4280     -337.1728    52                   -105.0355    15113         
   6356  4320    -1708.8434    36                   -105.0355    15282         
   6572  4330    infeasible                         -105.0355    15327         
*  6574+ 4432                      -275798.6066     -105.0355            99.96%
   6989  4456     -105.1904    62  -275798.6066     -105.0355    18459   99.96%
   7435  4603     -116.5708    77  -275798.6066     -105.0355    23095   99.96%
   7889  4690     -116.5708    19  -275798.6066     -105.0355    23506   99.96%
Elapsed time = 33.55 sec. (17927.93 ticks, tree = 32.89 MB, solutions = 1)
   8166  4703        cutoff        -275798.6066     -105.0355    23572   99.96%
   8490  4955   -13839.9053    24  -275798.6066     -105.0355    26837   99.96%
   8641  4608        cutoff        -275798.6066     -105.0355    24628   99.96%
   8713  5024        cutoff        -275798.6066     -105.0355    27264   99.96%
   8724  5671        cutoff        -275798.6066     -105.0355    35137   99.96%
  11207  1343   -30165.5817   229  -275798.6066     -105.0355    39369   99.96%
  13610  4061    -2272.7273   146  -275798.6066     -105.0355    47884   99.96%
  17405  4304    -1727.6785   157    -3062.8975     -105.0355    58869   96.57%
  20058  4858       77.2046   206    -3062.8975     -105.0355    62353   96.57%
  22141  5674    -1558.8307   123    -3062.8975     -105.0355    66965   96.57%
Elapsed time = 65.50 sec. (32265.54 ticks, tree = 46.41 MB, solutions = 3)
  22410  5691        cutoff          -3062.8975     -105.0355    67692   96.57%
  22413  8708        cutoff          -3062.8975     -105.0355    82059   96.57%
  24407   186     -239.2392   210    -3062.8975     -105.0355    82857   96.57%
  25761   531    -2471.6875   194    -3062.8975     -105.0355    84552   96.57%
  27020  2178      143.6275   206    -3062.8975     -105.0355    91943   96.57%
* 29481  2570      integral     0      119.2483     -105.0355    93328 -188.08%
  31620  4508      137.4253   111      119.2483     -105.0355    96635 -188.08%
* 31931  4566      integral     0      137.4751     -105.0355    96853 -176.40%

GUB cover cuts applied:  1
Clique cuts applied:  7
Cover cuts applied:  7
Implied bound cuts applied:  13
Flow cuts applied:  538
Mixed integer rounding cuts applied:  34
Gomory fractional cuts applied:  143

Root node processing (before b&c):
  Real time             =    9.27 sec. (6176.03 ticks)
Parallel b&c, 32 threads:
  Real time             =   90.41 sec. (41871.84 ticks)
  Sync time (average)   =    2.51 sec.
  Wait time (average)   =    0.52 sec.
                          ------------
Total (root+branch&cut) =   99.67 sec. (48047.87 ticks)

Solution pool: 6 solutions saved.

MIP - Integer optimal solution:  Objective =  1.3747506261e+02
Solution time =   99.67 sec.  Iterations = 111813  Nodes = 32002
Deterministic time = 48048.02 ticks  (482.06 ticks/sec)

CPLEX> Incumbent solution written to file 'C:\Users\llavin\Desktop\test919\logs\tmppf1bk3ns.cplex.sol'.
CPLEX> NOTE: no warmstart specified for MIP iteration, default behavior is true
NOTE: resolving with all competitive generators using storage-only solution to warmstart
Solving...

Welcome to IBM(R) ILOG(R) CPLEX(R) Interactive Optimizer 12.9.0.0
  with Simplex, Mixed Integer & Barrier Optimizers
5725-A06 5725-A29 5724-Y48 5724-Y49 5724-Y54 5724-Y55 5655-Y21
Copyright IBM Corp. 1988, 2019.  All Rights Reserved.

Type 'help' for a list of available commands.
Type 'help' followed by a command name for more
information on commands.

CPLEX> Logfile 'cplex.log' closed.
Logfile 'C:\Users\llavin\Desktop\test919\logs\tmp6bk5ulhg.cplex.log' open.
CPLEX> New value for parallel optimization mode: -1
CPLEX> New value for mixed integer optimality gap tolerance: 0.01
CPLEX> New value for integrality tolerance: 1e-09
CPLEX> New value for feasibility tolerance: 0.1
CPLEX> New value for deterministic time limit in ticks: 100000
CPLEX> Problem 'C:\Users\llavin\Desktop\test919\logs\tmptt5xhtq3.pyomo.lp' read.
Read time = 0.23 sec. (13.88 ticks)
CPLEX> MIP start file 'C:\Users\llavin\Desktop\test919\logs\tmp0_cvhzxd.cplex.mst' read.
CPLEX> Problem name         : C:\Users\llavin\Desktop\test919\logs\tmptt5xhtq3.pyomo.lp
Objective sense      : Maximize
Variables            :   54041  [Nneg: 1,  Box: 22526,  Free: 4416,
                                 Binary: 27098]
Objective nonzeros   :    9725
Linear constraints   :  122164  [Less: 40983,  Greater: 58612,  Equal: 22569]
  Nonzeros           :  288457
  RHS nonzeros       :   66982

Variables            : Min LB: -5000.000        Max UB: 1000000.       
Objective nonzeros   : Min   : 0.07500000       Max   : 2500.000       
Linear constraints   :
  Nonzeros           : Min   : 0.07500000       Max   : 1000000.       
  RHS nonzeros       : Min   : 0.07500000       Max   : 1000000.       
CPLEX> CPXPARAM_Parallel                                -1
CPXPARAM_Simplex_Tolerances_Feasibility          0.10000000000000001
CPXPARAM_DetTimeLimit                            100000
CPXPARAM_MIP_Tolerances_MIPGap                   0.01
CPXPARAM_MIP_Tolerances_Integrality              1.0000000000000001e-09
Warning:  No solution found from 1 MIP starts.
Retaining values of one MIP start for possible repair.
Tried aggregator 3 times.
MIP Presolve eliminated 88129 rows and 19729 columns.
MIP Presolve added 3353 rows and 0 columns.
MIP Presolve modified 23480 coefficients.
Aggregator did 12834 substitutions.
Reduced MIP has 24554 rows, 20922 columns, and 68757 nonzeros.
Reduced MIP has 8284 binaries, 0 generals, 0 SOSs, and 0 indicators.
Presolve time = 0.28 sec. (175.79 ticks)
Probing fixed 450 vars, tightened 2957 bounds.
Probing time = 1.30 sec. (921.68 ticks)
Tried aggregator 2 times.
MIP Presolve eliminated 1004 rows and 904 columns.
MIP Presolve modified 2211 coefficients.
Aggregator did 56 substitutions.
Reduced MIP has 23494 rows, 19962 columns, and 65677 nonzeros.
Reduced MIP has 7832 binaries, 0 generals, 0 SOSs, and 0 indicators.
Presolve time = 0.09 sec. (64.14 ticks)
Probing time = 0.05 sec. (15.48 ticks)
Clique table members: 6581.
MIP emphasis: balance optimality and feasibility.
MIP search method: dynamic search.
Parallel mode: opportunistic, using up to 32 threads.
Root relaxation solution time = 0.27 sec. (205.25 ticks)

        Nodes                                         Cuts/
   Node  Left     Objective  IInf  Best Integer    Best Bound    ItCnt     Gap

      0     0    57837.0955  1761                  57837.0955     3374         
      0     0    57721.2923   786                  Cuts: 1104     3774         
      0     0    57604.2569   648                   Cuts: 764     3955         
      0     0    57552.3914   611                   Cuts: 439     4053         
      0     0    57506.0079   562                   Cuts: 331     4102         
      0     0    57504.3465   554                   Cuts: 231     4127         
      0     0    57504.3465   545                   Cuts: 201     4136         
      0     0    57504.3465   542                   Cuts: 194     4142         
      0     0    57504.3465   541                   Cuts: 178     4143         
Repair heuristic found nothing.
      0     2    57504.3465   541                    Cuts: 20     4143         
Elapsed time = 11.41 sec. (6453.63 ticks, tree = 0.02 MB, solutions = 0)
    437   220    55649.3928   518                  57218.0875     5530         
   1095   555    54347.8542   484                  57218.0875     7170         
   2167  1454    54934.4521   488                  57218.0875     9269         
   2817  2516    26968.5561   428                  57218.0875    22157         
   3436  2861   -29952.8667   384                  57151.4602    34296         
   4054  3296    57046.6940   532                  57076.4929    44419         
   4964  3646    55989.4510   499                  57076.4929    47224         
   5982  4396    52624.9099   477                  57076.4929    49564         
   6788  4850    31762.4758   347                  57076.4929    50011         
  11860  7806    55941.0678   383                  57076.4929    55610         
Elapsed time = 28.70 sec. (9556.98 ticks, tree = 61.96 MB, solutions = 0)
* 14739+ 4850                        50255.6011    57076.4929            13.57%
  17524  4892    56057.5007   518    50255.6011    57065.7862    71406   13.55%
  17549  6637        cutoff          50255.6011    57058.0982    85451   13.54%
  18469   701    56098.8658   362    50255.6011    57004.2691    91650   13.43%
  20246  2367    52379.7705   278    50255.6011    57004.2691   102362   13.43%
  23577  3784    51393.2513   230    50255.6011    57004.2691   108276   13.43%
  26041  5212    55336.0143   159    50255.6011    57004.2691   112380   13.43%
  26387  7424    56100.8194   337    50255.6011    57004.2691   124037   13.43%
  28338  7677    50766.3364   246    50255.6011    56998.8960   125589   13.42%
  31466  9514    51495.7893   166    50255.6011    56998.8960   137742   13.42%
Elapsed time = 76.53 sec. (23498.61 ticks, tree = 93.60 MB, solutions = 1)
  35074 12537    56176.0682   190    50255.6011    56998.8960   148799   13.42%
  38283 10954    51574.2509   240    50255.6011    56998.8960   142535   13.42%
  41515 16076    50328.5547   267    50255.6011    56998.8960   164901   13.42%
  44676 15674    50276.7486   218    50255.6011    56998.8960   162048   13.42%
  47411 13123    51781.6174   273    50255.6011    56998.8960   150784   13.42%
  48903 14904    51473.2427   210    50255.6011    56998.8960   157640   13.42%
  50083 15982    56163.8204   253    50255.6011    56802.1167   162717   13.03%
  51224 17280    51050.1636   326    50255.6011    56802.1167   170282   13.03%
* 51483 15046      integral     0    56025.9502    56802.1167   160536    1.39%
  52777 18508    51632.0226   250    56025.9502    56802.1167   175537    1.39%
Elapsed time = 112.16 sec. (32318.92 ticks, tree = 192.96 MB, solutions = 12)
  53806 17390    55535.1849   286    56025.9502    56802.1167   170599    1.39%
  54766 19586    55527.0843   316    56025.9502    56802.1167   179174    1.39%
  55945 17967    51778.6121   281    56025.9502    56802.1167   172521    1.39%
  57193 20540    55983.2102   240    56025.9502    56802.1167   181552    1.39%
  58442 18177    51185.1567   254    56025.9502    56802.1167   172931    1.39%
* 58909 18312      integral     0    56072.2700    56802.1167   175015    1.30%
  59549 19269    52743.4059   300    56072.2700    56802.1167   177760    1.30%
  60265 21198    51214.6210   173    56072.2700    56802.1167   183492    1.30%
  60868  6318    55512.6673   300    56072.2700    56802.1167   193657    1.30%
  61326 21377    50722.4696   213    56072.2700    56802.1167   184078    1.30%
Elapsed time = 118.67 sec. (41353.13 ticks, tree = 226.03 MB, solutions = 18)
  61681 21400    50722.4696   190    56072.2700    56802.1167   184123    1.30%
  62190 23782    50516.4788   218    56072.2700    56802.1167   193389    1.30%
  62469 23656    56172.2980   340    56072.2700    56802.1167   192529    1.30%
  62533  6280    56280.5658   373    56072.2700    56802.1167   193594    1.30%
  62648  6365    55516.6362   279    56072.2700    56608.7010   193883    0.96%

GUB cover cuts applied:  2
Clique cuts applied:  24
Cover cuts applied:  10
Implied bound cuts applied:  18
Flow cuts applied:  655
Mixed integer rounding cuts applied:  33
Zero-half cuts applied:  2
Gomory fractional cuts applied:  118

Root node processing (before b&c):
  Real time             =    9.55 sec. (6421.76 ticks)
Parallel b&c, 32 threads:
  Real time             =  112.38 sec. (40749.90 ticks)
  Sync time (average)   =    3.75 sec.
  Wait time (average)   =    0.25 sec.
                          ------------
Total (root+branch&cut) =  121.92 sec. (47171.66 ticks)

Solution pool: 19 solutions saved.

MIP - Integer optimal, tolerance (0.01/1e-06):  Objective =  5.6072270025e+04
Current MIP best bound =  5.6556224318e+04 (gap = 483.954, 0.86%)
Solution time =  121.94 sec.  Iterations = 236214  Nodes = 62686 (2351)
Deterministic time = 47171.81 ticks  (386.85 ticks/sec)

CPLEX> Incumbent solution written to file 'C:\Users\llavin\Desktop\test919\logs\tmpaly6ns7e.cplex.sol'.
CPLEX> Exporting results... 
